(declare-fun temp1431_2 () (_ BitVec 64))
(declare-fun temp1431_1 () (_ BitVec 64))
(declare-fun var1184304 () (_ BitVec 64))
(declare-fun ARGNAME_input_NAMEEND_DIM () (_ BitVec 64))
(declare-fun temp1431_3 () (_ BitVec 64))
(declare-fun temp1431_4 () (_ BitVec 64))
(declare-fun var1249845 () (_ BitVec 64))
(declare-fun var1315392 () (_ BitVec 64))
(declare-fun temp1431_6 () (_ BitVec 64))
(declare-fun temp1431_5 () (_ BitVec 64))
(declare-fun temp1431_7 () (_ BitVec 64))
(declare-fun var2036022 () (_ BitVec 64))
(declare-fun var2101569 () (_ BitVec 64))
(declare-fun temp1431_9 () (_ BitVec 64))
(declare-fun temp1431_8 () (_ BitVec 64))
(declare-fun temp1431_10 () (_ BitVec 64))
(declare-fun var3150134 () (_ BitVec 64))
(declare-fun var3215681 () (_ BitVec 64))
(declare-fun temp1431_11 () (_ BitVec 64))
(declare-fun var1838948 () (_ BitVec 64))
(declare-fun temp1431_13 () (_ BitVec 64))
(declare-fun temp1431_12 () (_ BitVec 64))
(declare-fun temp1431_15 () (_ BitVec 64))
(declare-fun temp1431_14 () (_ BitVec 64))
(declare-fun temp1431_17 () (_ BitVec 64))
(declare-fun temp1431_16 () (_ BitVec 64))
(declare-fun temp1431_19 () (_ BitVec 64))
(declare-fun temp1431_18 () (_ BitVec 64))
(declare-fun temp1431_21 () (_ BitVec 64))
(declare-fun temp1431_20 () (_ BitVec 64))
(declare-fun temp1431_23 () (_ BitVec 64))
(declare-fun temp1431_22 () (_ BitVec 64))
(declare-fun temp1431_25 () (_ BitVec 64))
(declare-fun temp1431_24 () (_ BitVec 64))
(declare-fun temp1431_27 () (_ BitVec 64))
(declare-fun temp1431_26 () (_ BitVec 64))
(declare-fun temp1431_29 () (_ BitVec 64))
(declare-fun temp1431_28 () (_ BitVec 64))
(declare-fun temp1431_31 () (_ BitVec 64))
(declare-fun temp1431_30 () (_ BitVec 64))
(declare-fun temp1431_32 () (_ BitVec 64))
(declare-fun temp1431_33 () (_ BitVec 64))
(declare-fun var1842181 () (_ BitVec 64))
(assert (= temp1431_2 #x0000000000000000))
(assert (= temp1431_1 temp1431_2))
(assert (= var1184304
   (ite (bvslt temp1431_1 ARGNAME_input_NAMEEND_DIM)
        #x0000000000000001
        #x0000000000000000)))
(assert (= temp1431_3
   (ite (= var1184304 #x0000000000000001) ARGNAME_input_NAMEEND_DIM temp1431_1)))
(assert (= temp1431_4 #x0000000000000000))
(assert (= var1249845 temp1431_4))
(assert (= var1315392 var1249845))
(assert (= temp1431_6 #x0000000000000000))
(assert (= temp1431_5 temp1431_6))
(assert (= temp1431_7 #x0000000000000000))
(assert (= var2036022 temp1431_7))
(assert (= var2101569 var2036022))
(assert (= temp1431_9 #x0000000000000000))
(assert (= temp1431_8 temp1431_9))
(assert (= temp1431_10 #x0000000000000000))
(assert (= var3150134 temp1431_10))
(assert (= var3215681 var3150134))
(assert (= temp1431_11 #x0000000000000001))
(assert (= var1838948 temp1431_11))
(assert (= temp1431_13 #x0000000000000001))
(assert (= temp1431_12 temp1431_13))
(assert (= temp1431_15 #xffffffffffffffff))
(assert (= temp1431_14 temp1431_15))
(assert (= temp1431_17 #x0000000000000000))
(assert (= temp1431_16 temp1431_17))
(assert (= temp1431_19 #xffffffffffffffff))
(assert (= temp1431_18 temp1431_19))
(assert (= temp1431_21 #x0000000000000001))
(assert (= temp1431_20 temp1431_21))
(assert (= temp1431_23 #x0000000000000000))
(assert (= temp1431_22 temp1431_23))
(assert (= temp1431_25 #xfffffffffffffffe))
(assert (= temp1431_24 temp1431_25))
(assert (= temp1431_27 #x0000000000000001))
(assert (= temp1431_26 temp1431_27))
(assert (= temp1431_29 #xffffffffffffffff))
(assert (= temp1431_28 temp1431_29))
(assert (= temp1431_31 #x0000000000000002))
(assert (= temp1431_30 temp1431_31))
(assert (= temp1431_32 #x0000000000000001))
(assert (distinct var1842181 temp1431_32))
(assert (= temp1431_33 #x0000000000000002))
(assert (distinct var1842181 temp1431_33))
(model-add temp1431_2 () (_ BitVec 64) #x0000000000000000)
(model-add temp1431_1 () (_ BitVec 64) #x0000000000000000)
(model-add var1184304
           ()
           (_ BitVec 64)
           (ite (bvsle ARGNAME_input_NAMEEND_DIM #x0000000000000000)
                #x0000000000000000
                #x0000000000000001))
(model-add temp1431_3
           ()
           (_ BitVec 64)
           (ite (= (ite (bvsle ARGNAME_input_NAMEEND_DIM #x0000000000000000)
                        #x0000000000000000
                        #x0000000000000001)
                   #x0000000000000001)
                ARGNAME_input_NAMEEND_DIM
                #x0000000000000000))
(model-add temp1431_4 () (_ BitVec 64) #x0000000000000000)
(model-add var1249845 () (_ BitVec 64) #x0000000000000000)
(model-add var1315392 () (_ BitVec 64) #x0000000000000000)
(model-add temp1431_6 () (_ BitVec 64) #x0000000000000000)
(model-add temp1431_5 () (_ BitVec 64) #x0000000000000000)
(model-add temp1431_7 () (_ BitVec 64) #x0000000000000000)
(model-add var2036022 () (_ BitVec 64) #x0000000000000000)
(model-add var2101569 () (_ BitVec 64) #x0000000000000000)
(model-add temp1431_9 () (_ BitVec 64) #x0000000000000000)
(model-add temp1431_8 () (_ BitVec 64) #x0000000000000000)
(model-add temp1431_10 () (_ BitVec 64) #x0000000000000000)
(model-add var3150134 () (_ BitVec 64) #x0000000000000000)
(model-add var3215681 () (_ BitVec 64) #x0000000000000000)
(model-add temp1431_11 () (_ BitVec 64) #x0000000000000001)
(model-add var1838948 () (_ BitVec 64) #x0000000000000001)
(model-add temp1431_13 () (_ BitVec 64) #x0000000000000001)
(model-add temp1431_12 () (_ BitVec 64) #x0000000000000001)
(model-add temp1431_15 () (_ BitVec 64) #xffffffffffffffff)
(model-add temp1431_14 () (_ BitVec 64) #xffffffffffffffff)
(model-add temp1431_17 () (_ BitVec 64) #x0000000000000000)
(model-add temp1431_16 () (_ BitVec 64) #x0000000000000000)
(model-add temp1431_19 () (_ BitVec 64) #xffffffffffffffff)
(model-add temp1431_18 () (_ BitVec 64) #xffffffffffffffff)
(model-add temp1431_21 () (_ BitVec 64) #x0000000000000001)
(model-add temp1431_20 () (_ BitVec 64) #x0000000000000001)
(model-add temp1431_23 () (_ BitVec 64) #x0000000000000000)
(model-add temp1431_22 () (_ BitVec 64) #x0000000000000000)
(model-add temp1431_25 () (_ BitVec 64) #xfffffffffffffffe)
(model-add temp1431_24 () (_ BitVec 64) #xfffffffffffffffe)
(model-add temp1431_27 () (_ BitVec 64) #x0000000000000001)
(model-add temp1431_26 () (_ BitVec 64) #x0000000000000001)
(model-add temp1431_29 () (_ BitVec 64) #xffffffffffffffff)
(model-add temp1431_28 () (_ BitVec 64) #xffffffffffffffff)
(model-add temp1431_31 () (_ BitVec 64) #x0000000000000002)
(model-add temp1431_30 () (_ BitVec 64) #x0000000000000002)
(model-add temp1431_32 () (_ BitVec 64) #x0000000000000001)
(model-add temp1431_33 () (_ BitVec 64) #x0000000000000002)





